<<<<<<< HEAD
=======
\* SchedulingCourses *\
Minimize
OBJ: - 102 y(1000_CS) - y(4000_BI) - 5 y(4000_MA_DE_NOT_DC) - y(4000_PA)
 - y(ALGO) - 60 y(ALL_SOC_SCI) - 90 y(ANALYSIS_ALGOS) - 20 y(ART_CON)
 - 2 y(BIG_DATA) - 2 y(BUS_4000_DE) - 2 y(BUS_ANALYSIS) - 3 y(BUS_DE)
 - 4 y(CALC_I_II) - 3 y(CS_4000_NOT_DC) - 5 y(CS_DE) - y(DB_I)
 - y(DPE_LEFTOVER) - 3 y(DS_CORE) - 6 y(ENG_ENTR) - 20 y(FLG_CON) - 90 y(G_AI)
 - 90 y(G_BIOMED_DM) - 90 y(G_BIOVIS) - 99 y(G_DB) - 98 y(G_DM) - 98 y(G_ML)
 - 90 y(G_MOB_UB) - 96 y(G_PRES_ANALYTICS) - 90 y(G_PROB_STATS_I)
 - 90 y(G_PROB_STATS_II) - 90 y(G_STAT_BIO) - 97 y(G_STAT_LEARN)
 - 20 y(HI_CON) - y(HUA_PROJ) - 3 y(HU_DPE) - y(ID_2050) - 101 y(INTRO_CS)
 - 100 y(IQP_OFF_CM) - 25 y(IQP_ON_CM) - 2 y(LIN_ALG) - 17 y(MATH_DE)
 - 90 y(MATH_OPT) - y(MIS_DB) - 2 y(M_ADV_CRYPT) - 90 y(M_ADV_DB)
 - 2 y(M_AI_AET) - 2 y(M_ALGOS) - 100 y(M_BI) - 90 y(M_BIG_DATA_AN)
 - 90 y(M_BIG_DATA_MAN) - 90 y(M_BI_OTHER) - 2 y(M_CRYPT) - 90 y(M_DEEP_LEARN)
 - 41 y(M_ELECTIVES) - 2 y(M_EMP_HCC) - 2 y(M_GRAPH_UNCERT) - 2 y(M_INFO_RET)
 - 90 y(M_MATH_ANALYTICS) - 2 y(M_MATH_FOUND_DS) - 90 y(M_MIS_DB)
 - 2 y(M_USER_MODEL) - 20 y(PY_CON) - 12 y(SCI_ENG) - 4 y(SOC_IMPS)
 - 3 y(SS_DPE) - 2 y(STATS) - 90 y(UG_AI) - 90 y(UG_BIOMED_DM)
 - 90 y(UG_BIOVIS) - 99 y(UG_DB_II) - 98 y(UG_DM) - 98 y(UG_ML)
 - 90 y(UG_MOB_UB) - 90 y(UG_PROB_STATS_I) - 90 y(UG_PROB_STATS_II)
 - 90 y(UG_STAT_BIO) - 97 y(UG_STAT_LEARN) - 20 y(WR_CON)
Subject To
MAXIMIZE_DOUBLE_COUNTS: __dummy <= 18
SR(C_REST_BIG_DATA): - 3 x(BIG_DATA)(DS_DE) >= -3
SR(C_REST_BIOMED_DM): - 3 x(UG_BIOMED_DM)(DS_DE)
 - 3 x(UG_BIOMED_DM)(DS_DOUBLE) >= -3
SR(C_REST_BIOVIS): - 3 x(UG_BIOVIS)(DS_DE) - 3 x(UG_BIOVIS)(DS_DOUBLE) >= -3
SR(C_REST_DA_STAT_LEARN): - 3 x(UG_STAT_LEARN)(DS_DE)
 - 3 x(UG_STAT_LEARN)(DS_DOUBLE) >= -3
SR(C_REST_G_ADV_CRYPT): - 4.5 x(M_ADV_CRYPT)(DS_M_TOTAL_CREDITS) >= -4.5
SR(C_REST_G_AI_AET): - 4.5 x(M_AI_AET)(DS_M_TOTAL_CREDITS) >= -4.5
SR(C_REST_G_ALGO): - 4.5 x(M_ALGOS)(DS_M_TOTAL_CREDITS) >= -4.5
SR(C_REST_G_BIG_DATA_A): - 4.5 x(M_BIG_DATA_AN)(DS_DE)
 - 4.5 x(M_BIG_DATA_AN)(DS_DOUBLE) - 4.5 x(M_BIG_DATA_AN)(DS_M_TOTAL_CREDITS)
 >= -4.5
SR(C_REST_G_BIG_DATA_M): - 4.5 x(M_BIG_DATA_MAN)(DS_DE)
 - 4.5 x(M_BIG_DATA_MAN)(DS_DOUBLE)
 - 4.5 x(M_BIG_DATA_MAN)(DS_M_TOTAL_CREDITS) >= -4.5
SR(C_REST_G_BIOVIS): - 4.5 x(G_BIOVIS)(DS_DE) - 4.5 x(G_BIOVIS)(DS_DOUBLE)
 - 4.5 x(G_BIOVIS)(DS_M_TOTAL_CREDITS) >= -4.5
SR(C_REST_G_BIO_DM): - 4.5 x(G_BIOMED_DM)(DS_DE)
 - 4.5 x(G_BIOMED_DM)(DS_DOUBLE) - 4.5 x(G_BIOMED_DM)(DS_M_TOTAL_CREDITS)
 >= -4.5
SR(C_REST_G_CRYPT): - 4.5 x(M_CRYPT)(DS_M_TOTAL_CREDITS) >= -4.5
SR(C_REST_G_DEEP_LEARN): - 4.5 x(M_DEEP_LEARN)(DS_DE)
 - 4.5 x(M_DEEP_LEARN)(DS_DOUBLE) - 4.5 x(M_DEEP_LEARN)(DS_M_TOTAL_CREDITS)
 >= -4.5
SR(C_REST_G_EMP_HCC): - 4.5 x(M_EMP_HCC)(DS_M_TOTAL_CREDITS) >= -4.5
SR(C_REST_G_GRAPH_UNCERT): - 4.5 x(M_GRAPH_UNCERT)(DS_M_TOTAL_CREDITS) >= -4.5
SR(C_REST_G_INFO_RET): - 4.5 x(M_INFO_RET)(DS_M_TOTAL_CREDITS) >= -4.5
SR(C_REST_G_MATH_FOUND_DS): - 4.5 x(M_MATH_FOUND_DS)(DS_M_TOTAL_CREDITS)
 >= -4.5
SR(C_REST_G_STAT_BIO): - 4.5 x(G_STAT_BIO)(DS_DOUBLE)
 - 4.5 x(G_STAT_BIO)(DS_M_TOTAL_CREDITS) >= -4.5
SR(C_REST_G_STAT_LEARN): - 4.5 x(G_STAT_LEARN)(DS_DE)
 - 4.5 x(G_STAT_LEARN)(DS_DOUBLE) - 4.5 x(G_STAT_LEARN)(DS_M_TOTAL_CREDITS)
 >= -4.5
SR(C_REST_G_USER_MODEL): - 4.5 x(M_USER_MODEL)(DS_M_TOTAL_CREDITS) >= -4.5
SR(C_REST_STAT_BIO): - 3 x(UG_STAT_BIO)(DS_DE) - 3 x(UG_STAT_BIO)(DS_DOUBLE)
 >= -3
SR(DS_4LDER): 3 x(4000_BI)(DS_DE) + 3 x(4000_MA_DE_NOT_DC)(DS_DE)
 + 3 x(4000_MA_DE_NOT_DC)(DS_MS) + 3 x(4000_PA)(DS_DE)
 + 3 x(ANALYSIS_ALGOS)(DS_CS) + 3 x(ANALYSIS_ALGOS)(DS_DE)
 + 3 x(ANALYSIS_ALGOS)(DS_DOUBLE) + 3 x(BIG_DATA)(DS_CS)
 + 3 x(BIG_DATA)(DS_DE) + 3 x(BUS_4000_DE)(DS_DE) + 3 x(CS_4000_NOT_DC)(DS_CS)
 + 3 x(CS_4000_NOT_DC)(DS_DE) + 4.5 x(G_AI)(DS_CS) + 4.5 x(G_AI)(DS_DE)
 + 4.5 x(G_AI)(DS_DOUBLE) + 4.5 x(G_BIOMED_DM)(DS_CS)
 + 4.5 x(G_BIOMED_DM)(DS_DE) + 4.5 x(G_BIOMED_DM)(DS_DOUBLE)
 + 4.5 x(G_BIOVIS)(DS_CS) + 4.5 x(G_BIOVIS)(DS_DE)
 + 4.5 x(G_BIOVIS)(DS_DOUBLE) + 4.5 x(G_DB)(DS_CS) + 4.5 x(G_DB)(DS_DE)
 + 4.5 x(G_DB)(DS_DOUBLE) + 4.5 x(G_DM)(DS_CS) + 4.5 x(G_DM)(DS_DE)
 + 4.5 x(G_DM)(DS_DOUBLE) + 4.5 x(G_ML)(DS_CS) + 4.5 x(G_ML)(DS_DE)
 + 4.5 x(G_ML)(DS_DOUBLE) + 4.5 x(G_MOB_UB)(DS_CS) + 4.5 x(G_MOB_UB)(DS_DE)
 + 4.5 x(G_MOB_UB)(DS_DOUBLE) + 4.5 x(G_PRES_ANALYTICS)(DS_DE)
 + 4.5 x(G_PRES_ANALYTICS)(DS_DOUBLE) + 4.5 x(G_PROB_STATS_I)(DS_DE)
 + 4.5 x(G_PROB_STATS_I)(DS_DOUBLE) + 4.5 x(G_PROB_STATS_I)(DS_MS)
 + 4.5 x(G_PROB_STATS_II)(DS_DE) + 4.5 x(G_PROB_STATS_II)(DS_DOUBLE)
 + 4.5 x(G_PROB_STATS_II)(DS_MS) + 4.5 x(G_STAT_LEARN)(DS_DE)
 + 4.5 x(G_STAT_LEARN)(DS_DOUBLE) + 4.5 x(G_STAT_LEARN)(DS_MS)
 + 3 x(MATH_OPT)(DS_DE) + 3 x(MATH_OPT)(DS_DOUBLE) + 3 x(MATH_OPT)(DS_MS)
 + 4.5 x(M_ADV_DB)(DS_CS) + 4.5 x(M_ADV_DB)(DS_DE)
 + 4.5 x(M_ADV_DB)(DS_DOUBLE) + 4.5 x(M_BI)(DS_DE) + 4.5 x(M_BI)(DS_DOUBLE)
 + 4.5 x(M_BIG_DATA_AN)(DS_CS) + 4.5 x(M_BIG_DATA_AN)(DS_DE)
 + 4.5 x(M_BIG_DATA_AN)(DS_DOUBLE) + 4.5 x(M_BIG_DATA_MAN)(DS_CS)
 + 4.5 x(M_BIG_DATA_MAN)(DS_DE) + 4.5 x(M_BIG_DATA_MAN)(DS_DOUBLE)
 + 4.5 x(M_BI_OTHER)(DS_DE) + 4.5 x(M_BI_OTHER)(DS_DOUBLE)
 + 4.5 x(M_DEEP_LEARN)(DS_CS) + 4.5 x(M_DEEP_LEARN)(DS_DE)
 + 4.5 x(M_DEEP_LEARN)(DS_DOUBLE) + 4.5 x(M_MATH_ANALYTICS)(DS_DE)
 + 4.5 x(M_MATH_ANALYTICS)(DS_DOUBLE) + 4.5 x(M_MATH_ANALYTICS)(DS_MS)
 + 4.5 x(M_MIS_DB)(DS_DE) + 4.5 x(M_MIS_DB)(DS_DOUBLE) + 3 x(UG_AI)(DS_CS)
 + 3 x(UG_AI)(DS_DE) + 3 x(UG_AI)(DS_DOUBLE) + 3 x(UG_BIOMED_DM)(DS_CS)
 + 3 x(UG_BIOMED_DM)(DS_DE) + 3 x(UG_BIOMED_DM)(DS_DOUBLE)
 + 3 x(UG_BIOVIS)(DS_CS) + 3 x(UG_BIOVIS)(DS_DE) + 3 x(UG_BIOVIS)(DS_DOUBLE)
 + 3 x(UG_DB_II)(DS_CS) + 3 x(UG_DB_II)(DS_DE) + 3 x(UG_DB_II)(DS_DOUBLE)
 + 3 x(UG_DM)(DS_CS) + 3 x(UG_DM)(DS_DE) + 3 x(UG_DM)(DS_DOUBLE)
 + 3 x(UG_ML)(DS_CS) + 3 x(UG_ML)(DS_DE) + 3 x(UG_ML)(DS_DOUBLE)
 + 3 x(UG_PROB_STATS_I)(DS_DE) + 3 x(UG_PROB_STATS_I)(DS_DOUBLE)
 + 3 x(UG_PROB_STATS_I)(DS_MS) + 3 x(UG_PROB_STATS_II)(DS_DE)
 + 3 x(UG_PROB_STATS_II)(DS_DOUBLE) + 3 x(UG_PROB_STATS_II)(DS_MS)
 + 3 x(UG_STAT_BIO)(DS_DE) + 3 x(UG_STAT_BIO)(DS_DOUBLE)
 + 3 x(UG_STAT_BIO)(DS_MS) + 3 x(UG_STAT_LEARN)(DS_DE)
 + 3 x(UG_STAT_LEARN)(DS_DOUBLE) + 3 x(UG_STAT_LEARN)(DS_MS) >= 12
SR(DS_BMP): 3 x(4000_BI)(DS_DE) + 3 x(4000_PA)(DS_DE)
 + 4.5 x(G_PRES_ANALYTICS)(DS_DE) + 4.5 x(G_PRES_ANALYTICS)(DS_DOUBLE)
 + 4.5 x(M_BI)(DS_DE) + 4.5 x(M_BI)(DS_DOUBLE) >= 3
SR(DS_CS_1000_L): - 3 x(1000_CS)(DS_CS) >= -3
SR(DS_DAM): 3 x(BIG_DATA)(DS_CS) + 3 x(BIG_DATA)(DS_DE) + 3 x(DB_I)(DS_CS)
 + 3 x(DB_I)(DS_DE) + 4.5 x(G_DB)(DS_CS) + 4.5 x(G_DB)(DS_DE)
 + 4.5 x(G_DB)(DS_DOUBLE) + 3 x(MIS_DB)(DS_DE) + 3 x(UG_DB_II)(DS_CS)
 + 3 x(UG_DB_II)(DS_DE) + 3 x(UG_DB_II)(DS_DOUBLE) >= 3
SR(DS_DMML): 4.5 x(G_DM)(DS_CS) + 4.5 x(G_DM)(DS_DE) + 4.5 x(G_DM)(DS_DOUBLE)
 + 4.5 x(G_ML)(DS_CS) + 4.5 x(G_ML)(DS_DE) + 4.5 x(G_ML)(DS_DOUBLE)
 + 3 x(UG_DM)(DS_CS) + 3 x(UG_DM)(DS_DE) + 3 x(UG_DM)(DS_DOUBLE)
 + 3 x(UG_ML)(DS_CS) + 3 x(UG_ML)(DS_DE) + 3 x(UG_ML)(DS_DOUBLE) >= 3
SR(DS_DPE): 3 x(HU_DPE)(HUA_CORE) + 3 x(SOC_IMPS)(DS_DE)
 + 3 x(SS_DPE)(SOC_SCI_REQ) >= 3
SR(DS_M_BI_CASE): 4.5 x(M_BI)(DS_DE) + 4.5 x(M_BI)(DS_DOUBLE)
 + 4.5 x(M_BI)(DS_M_TOTAL_CREDITS) + 4.5 x(M_BI_OTHER)(DS_DE)
 + 4.5 x(M_BI_OTHER)(DS_DOUBLE) + 4.5 x(M_BI_OTHER)(DS_M_TOTAL_CREDITS) >= 4.5
SR(DS_M_DAT_MAN): 4.5 x(G_DB)(DS_DE) + 4.5 x(G_DB)(DS_DOUBLE)
 + 4.5 x(G_DB)(DS_M_TOTAL_CREDITS) + 4.5 x(M_ADV_DB)(DS_DE)
 + 4.5 x(M_ADV_DB)(DS_DOUBLE) + 4.5 x(M_ADV_DB)(DS_M_TOTAL_CREDITS)
 + 4.5 x(M_BIG_DATA_MAN)(DS_DE) + 4.5 x(M_BIG_DATA_MAN)(DS_DOUBLE)
 + 4.5 x(M_BIG_DATA_MAN)(DS_M_TOTAL_CREDITS) + 4.5 x(M_MIS_DB)(DS_DE)
 + 4.5 x(M_MIS_DB)(DS_DOUBLE) + 4.5 x(M_MIS_DB)(DS_M_TOTAL_CREDITS) >= 4.5
SR(DS_M_DAT_MIN): 4.5 x(G_DM)(DS_DE) + 4.5 x(G_DM)(DS_DOUBLE)
 + 4.5 x(G_DM)(DS_M_TOTAL_CREDITS) + 4.5 x(G_ML)(DS_DE)
 + 4.5 x(G_ML)(DS_DOUBLE) + 4.5 x(G_ML)(DS_M_TOTAL_CREDITS)
 + 4.5 x(M_BIG_DATA_AN)(DS_DE) + 4.5 x(M_BIG_DATA_AN)(DS_DOUBLE)
 + 4.5 x(M_BIG_DATA_AN)(DS_M_TOTAL_CREDITS) + 4.5 x(M_DEEP_LEARN)(DS_DE)
 + 4.5 x(M_DEEP_LEARN)(DS_DOUBLE) + 4.5 x(M_DEEP_LEARN)(DS_M_TOTAL_CREDITS)
 >= 4.5
SR(DS_M_MATH_ANALYTICS): 4.5 x(G_STAT_LEARN)(DS_DE)
 + 4.5 x(G_STAT_LEARN)(DS_DOUBLE) + 4.5 x(G_STAT_LEARN)(DS_M_TOTAL_CREDITS)
 + 4.5 x(M_MATH_ANALYTICS)(DS_DE) + 4.5 x(M_MATH_ANALYTICS)(DS_DOUBLE)
 + 4.5 x(M_MATH_ANALYTICS)(DS_M_TOTAL_CREDITS) >= 4.5
SR(HUA_ART_MAX): - 3 x(ART_CON)(HUA_CORE) >= -12
SR(HUA_HI_MAX): - 3 x(HI_CON)(HUA_CORE) >= -12
SR(HUA_PY_MAX): - 3 x(PY_CON)(HUA_CORE) >= -12
SR(HUA_WR_MAX): - 3 x(WR_CON)(HUA_CORE) >= -12
SR(ON_OFF_CAMPUS): 3 x(ID_2050)(SOC_SCI_REQ) + 9 x(IQP_ON_CM)(IQP) >= 3
SR(UGG_REST_AI): - 4.5 x(G_AI)(DS_DE) - 4.5 x(G_AI)(DS_DOUBLE)
 - 4.5 x(G_AI)(DS_M_TOTAL_CREDITS) - 3 x(UG_AI)(DS_DE) - 3 x(UG_AI)(DS_DOUBLE)
 >= -4.5
SR(UGG_REST_BIOMED_DAT_MIN): - 4.5 x(G_BIOMED_DM)(DS_DE)
 - 4.5 x(G_BIOMED_DM)(DS_DOUBLE) - 4.5 x(G_BIOMED_DM)(DS_M_TOTAL_CREDITS)
 - 3 x(UG_BIOMED_DM)(DS_DE) - 3 x(UG_BIOMED_DM)(DS_DOUBLE) >= -4.5
SR(UGG_REST_BIOVIS): - 4.5 x(G_BIOVIS)(DS_DE) - 4.5 x(G_BIOVIS)(DS_DOUBLE)
 - 4.5 x(G_BIOVIS)(DS_M_TOTAL_CREDITS) - 3 x(UG_BIOVIS)(DS_DE)
 - 3 x(UG_BIOVIS)(DS_DOUBLE) >= -4.5
SR(UGG_REST_DAT_MIN): - 4.5 x(G_DM)(DS_DE) - 4.5 x(G_DM)(DS_DOUBLE)
 - 4.5 x(G_DM)(DS_M_TOTAL_CREDITS) - 3 x(UG_DM)(DS_DE) - 3 x(UG_DM)(DS_DOUBLE)
 >= -4.5
SR(UGG_REST_DA_STAT_LEARN): - 4.5 x(G_STAT_LEARN)(DS_DE)
 - 4.5 x(G_STAT_LEARN)(DS_DOUBLE) - 4.5 x(G_STAT_LEARN)(DS_M_TOTAL_CREDITS)
 - 3 x(UG_STAT_LEARN)(DS_DE) - 3 x(UG_STAT_LEARN)(DS_DOUBLE) >= -4.5
SR(UGG_REST_DB_I): - 3 x(DB_I)(DS_DE) - 4.5 x(G_DB)(DS_DE)
 - 4.5 x(G_DB)(DS_DOUBLE) - 4.5 x(G_DB)(DS_M_TOTAL_CREDITS) >= -4.5
SR(UGG_REST_DB_MGMT_SYS): - 4.5 x(G_DB)(DS_DE) - 4.5 x(G_DB)(DS_DOUBLE)
 - 4.5 x(G_DB)(DS_M_TOTAL_CREDITS) - 3 x(UG_DB_II)(DS_DE)
 - 3 x(UG_DB_II)(DS_DOUBLE) >= -4.5
SR(UGG_REST_MACH_LEARN): - 4.5 x(G_ML)(DS_DE) - 4.5 x(G_ML)(DS_DOUBLE)
 - 4.5 x(G_ML)(DS_M_TOTAL_CREDITS) - 3 x(UG_ML)(DS_DE) - 3 x(UG_ML)(DS_DOUBLE)
 >= -4.5
SR(UGG_REST_MOB_UB_COMP): - 4.5 x(G_MOB_UB)(DS_DE)
 - 4.5 x(G_MOB_UB)(DS_DOUBLE) - 4.5 x(G_MOB_UB)(DS_M_TOTAL_CREDITS)
 - 3 x(UG_MOB_UB)(DS_DOUBLE) >= -4.5
SR(UGG_REST_PRES_ANALYTICS): - 3 x(4000_PA)(DS_DE)
 - 4.5 x(G_PRES_ANALYTICS)(DS_DE) - 4.5 x(G_PRES_ANALYTICS)(DS_DOUBLE)
 - 4.5 x(G_PRES_ANALYTICS)(DS_M_TOTAL_CREDITS) >= -4.5
SR(UGG_REST_PROB_I): - 4.5 x(G_PROB_STATS_I)(DS_DE)
 - 4.5 x(G_PROB_STATS_I)(DS_DOUBLE)
 - 4.5 x(G_PROB_STATS_I)(DS_M_TOTAL_CREDITS) - 3 x(UG_PROB_STATS_I)(DS_DE)
 - 3 x(UG_PROB_STATS_I)(DS_DOUBLE) >= -4.5
SR(UGG_REST_PROB_II): - 4.5 x(G_PROB_STATS_II)(DS_DE)
 - 4.5 x(G_PROB_STATS_II)(DS_DOUBLE)
 - 4.5 x(G_PROB_STATS_II)(DS_M_TOTAL_CREDITS) - 3 x(UG_PROB_STATS_II)(DS_DE)
 - 3 x(UG_PROB_STATS_II)(DS_DOUBLE) >= -4.5
SR(UGG_REST_STAT_BIO): - 4.5 x(G_STAT_BIO)(DS_DOUBLE)
 - 4.5 x(G_STAT_BIO)(DS_M_TOTAL_CREDITS) - 3 x(UG_STAT_BIO)(DS_DE)
 - 3 x(UG_STAT_BIO)(DS_DOUBLE) >= -4.5
SR2(HUA_DEPTH)(C0): - 9 SR2(HUA_DEPTH_0) + 3 x(ART_CON)(HUA_CORE) >= -0.1
SR2(HUA_DEPTH)(C1): - 9 SR2(HUA_DEPTH_1) + 3 x(FLG_CON)(HUA_CORE) >= -0.1
SR2(HUA_DEPTH)(C2): - 9 SR2(HUA_DEPTH_2) + 3 x(WR_CON)(HUA_CORE) >= -0.1
SR2(HUA_DEPTH)(C3): - 9 SR2(HUA_DEPTH_3) + 3 x(HI_CON)(HUA_CORE) >= -0.1
SR2(HUA_DEPTH)(C4): - 9 SR2(HUA_DEPTH_4) + 3 x(PY_CON)(HUA_CORE) >= -0.1
SR2_total(HUA_DEPTH): SR2(HUA_DEPTH_0) + SR2(HUA_DEPTH_1) + SR2(HUA_DEPTH_2)
 + SR2(HUA_DEPTH_3) + SR2(HUA_DEPTH_4) >= 1
credMax: 3 y(1000_CS) + 3 y(4000_BI) + 3 y(4000_MA_DE_NOT_DC) + 3 y(4000_PA)
 + 3 y(ALGO) + 3 y(ALL_SOC_SCI) + 3 y(ANALYSIS_ALGOS) + 3 y(ART_CON)
 + 3 y(BIG_DATA) + 3 y(BUS_4000_DE) + 3 y(BUS_ANALYSIS) + 3 y(BUS_DE)
 + 3 y(CALC_I_II) + 3 y(CS_4000_NOT_DC) + 3 y(CS_DE) + 3 y(DB_I)
 + 3 y(DPE_LEFTOVER) + 3 y(DS_CORE) + 3 y(ENG_ENTR) + 3 y(FLG_CON)
 + 4.5 y(G_AI) + 4.5 y(G_BIOMED_DM) + 4.5 y(G_BIOVIS) + 4.5 y(G_DB)
 + 4.5 y(G_DM) + 4.5 y(G_ML) + 4.5 y(G_MOB_UB) + 4.5 y(G_PRES_ANALYTICS)
 + 4.5 y(G_PROB_STATS_I) + 4.5 y(G_PROB_STATS_II) + 4.5 y(G_STAT_BIO)
 + 4.5 y(G_STAT_LEARN) + 3 y(HI_CON) + 3 y(HUA_PROJ) + 3 y(HU_DPE)
 + 3 y(ID_2050) + 3 y(INTRO_CS) + 9 y(IQP_OFF_CM) + 9 y(IQP_ON_CM)
 + 3 y(LIN_ALG) + 3 y(MATH_DE) + 3 y(MATH_OPT) + 3 y(MIS_DB)
 + 4.5 y(M_ADV_CRYPT) + 4.5 y(M_ADV_DB) + 4.5 y(M_AI_AET) + 4.5 y(M_ALGOS)
 + 4.5 y(M_BI) + 4.5 y(M_BIG_DATA_AN) + 4.5 y(M_BIG_DATA_MAN)
 + 4.5 y(M_BI_OTHER) + 4.5 y(M_CRYPT) + 4.5 y(M_DEEP_LEARN)
 + 4.5 y(M_ELECTIVES) + 4.5 y(M_EMP_HCC) + 4.5 y(M_GRAPH_UNCERT)
 + 4.5 y(M_INFO_RET) + 4.5 y(M_MATH_ANALYTICS) + 4.5 y(M_MATH_FOUND_DS)
 + 4.5 y(M_MIS_DB) + 4.5 y(M_USER_MODEL) + 3 y(PY_CON) + 3 y(SCI_ENG)
 + 3 y(SOC_IMPS) + 3 y(SS_DPE) + 3 y(STATS) + 3 y(UG_AI) + 3 y(UG_BIOMED_DM)
 + 3 y(UG_BIOVIS) + 3 y(UG_DB_II) + 3 y(UG_DM) + 3 y(UG_ML) + 3 y(UG_MOB_UB)
 + 3 y(UG_PROB_STATS_I) + 3 y(UG_PROB_STATS_II) + 3 y(UG_STAT_BIO)
 + 3 y(UG_STAT_LEARN) + 3 y(WR_CON) + 0.01 z(DS_ALGOS) + 0.01 z(DS_BA)
 + 0.01 z(DS_C) + 0.01 z(DS_CS) + 0.01 z(DS_DE) + 0.01 z(DS_DOUBLE)
 + 0.01 z(DS_EI) + 0.01 z(DS_LA) + 0.01 z(DS_MS) + 0.01 z(DS_M_TOTAL_CREDITS)
 + 0.01 z(DS_NES) + 0.01 z(DS_STATS) + 0.01 z(HUA_CORE) + 0.01 z(HUA_PROJ)
 + 0.01 z(IQP) + 0.01 z(SOC_SCI_REQ) = 177
reqMin(DS_ALGOS): 3 x(ALGO)(DS_ALGOS) - z(DS_ALGOS) = 3
reqMin(DS_BA): 3 x(BUS_ANALYSIS)(DS_BA) - z(DS_BA) = 3
reqMin(DS_C): 3 x(DS_CORE)(DS_C) - z(DS_C) = 9
reqMin(DS_CS): 3 x(1000_CS)(DS_CS) + 3 x(ANALYSIS_ALGOS)(DS_CS)
 + 3 x(BIG_DATA)(DS_CS) + 3 x(CS_4000_NOT_DC)(DS_CS) + 3 x(CS_DE)(DS_CS)
 + 3 x(DB_I)(DS_CS) + 4.5 x(G_AI)(DS_CS) + 4.5 x(G_BIOMED_DM)(DS_CS)
 + 4.5 x(G_BIOVIS)(DS_CS) + 4.5 x(G_DB)(DS_CS) + 4.5 x(G_DM)(DS_CS)
 + 4.5 x(G_ML)(DS_CS) + 4.5 x(G_MOB_UB)(DS_CS) + 3 x(INTRO_CS)(DS_CS)
 + 4.5 x(M_ADV_DB)(DS_CS) + 4.5 x(M_BIG_DATA_AN)(DS_CS)
 + 4.5 x(M_BIG_DATA_MAN)(DS_CS) + 4.5 x(M_DEEP_LEARN)(DS_CS)
 + 3 x(UG_AI)(DS_CS) + 3 x(UG_BIOMED_DM)(DS_CS) + 3 x(UG_BIOVIS)(DS_CS)
 + 3 x(UG_DB_II)(DS_CS) + 3 x(UG_DM)(DS_CS) + 3 x(UG_ML)(DS_CS) - z(DS_CS) = 6
reqMin(DS_DE): 3 x(4000_BI)(DS_DE) + 3 x(4000_MA_DE_NOT_DC)(DS_DE)
 + 3 x(4000_PA)(DS_DE) + 3 x(ANALYSIS_ALGOS)(DS_DE) + 3 x(BIG_DATA)(DS_DE)
 + 3 x(BUS_4000_DE)(DS_DE) + 3 x(BUS_DE)(DS_DE) + 3 x(CS_4000_NOT_DC)(DS_DE)
 + 3 x(CS_DE)(DS_DE) + 3 x(DB_I)(DS_DE) + 4.5 x(G_AI)(DS_DE)
 + 4.5 x(G_BIOMED_DM)(DS_DE) + 4.5 x(G_BIOVIS)(DS_DE) + 4.5 x(G_DB)(DS_DE)
 + 4.5 x(G_DM)(DS_DE) + 4.5 x(G_ML)(DS_DE) + 4.5 x(G_MOB_UB)(DS_DE)
 + 4.5 x(G_PRES_ANALYTICS)(DS_DE) + 4.5 x(G_PROB_STATS_I)(DS_DE)
 + 4.5 x(G_PROB_STATS_II)(DS_DE) + 4.5 x(G_STAT_LEARN)(DS_DE)
 + 3 x(MATH_DE)(DS_DE) + 3 x(MATH_OPT)(DS_DE) + 3 x(MIS_DB)(DS_DE)
 + 4.5 x(M_ADV_DB)(DS_DE) + 4.5 x(M_BI)(DS_DE) + 4.5 x(M_BIG_DATA_AN)(DS_DE)
 + 4.5 x(M_BIG_DATA_MAN)(DS_DE) + 4.5 x(M_BI_OTHER)(DS_DE)
 + 4.5 x(M_DEEP_LEARN)(DS_DE) + 4.5 x(M_MATH_ANALYTICS)(DS_DE)
 + 4.5 x(M_MIS_DB)(DS_DE) + 3 x(SOC_IMPS)(DS_DE) + 3 x(UG_AI)(DS_DE)
 + 3 x(UG_BIOMED_DM)(DS_DE) + 3 x(UG_BIOVIS)(DS_DE) + 3 x(UG_DB_II)(DS_DE)
 + 3 x(UG_DM)(DS_DE) + 3 x(UG_ML)(DS_DE) + 3 x(UG_PROB_STATS_I)(DS_DE)
 + 3 x(UG_PROB_STATS_II)(DS_DE) + 3 x(UG_STAT_BIO)(DS_DE)
 + 3 x(UG_STAT_LEARN)(DS_DE) - z(DS_DE) = 36
reqMin(DS_DOUBLE): 3 x(ANALYSIS_ALGOS)(DS_DOUBLE) + 4.5 x(G_AI)(DS_DOUBLE)
 + 4.5 x(G_BIOMED_DM)(DS_DOUBLE) + 4.5 x(G_BIOVIS)(DS_DOUBLE)
 + 4.5 x(G_DB)(DS_DOUBLE) + 4.5 x(G_DM)(DS_DOUBLE) + 4.5 x(G_ML)(DS_DOUBLE)
 + 4.5 x(G_MOB_UB)(DS_DOUBLE) + 4.5 x(G_PRES_ANALYTICS)(DS_DOUBLE)
 + 4.5 x(G_PROB_STATS_I)(DS_DOUBLE) + 4.5 x(G_PROB_STATS_II)(DS_DOUBLE)
 + 4.5 x(G_STAT_BIO)(DS_DOUBLE) + 4.5 x(G_STAT_LEARN)(DS_DOUBLE)
 + 3 x(MATH_OPT)(DS_DOUBLE) + 4.5 x(M_ADV_DB)(DS_DOUBLE)
 + 4.5 x(M_BI)(DS_DOUBLE) + 4.5 x(M_BIG_DATA_AN)(DS_DOUBLE)
 + 4.5 x(M_BIG_DATA_MAN)(DS_DOUBLE) + 4.5 x(M_BI_OTHER)(DS_DOUBLE)
 + 4.5 x(M_DEEP_LEARN)(DS_DOUBLE) + 4.5 x(M_MATH_ANALYTICS)(DS_DOUBLE)
 + 4.5 x(M_MIS_DB)(DS_DOUBLE) + 3 x(UG_AI)(DS_DOUBLE)
 + 3 x(UG_BIOMED_DM)(DS_DOUBLE) + 3 x(UG_BIOVIS)(DS_DOUBLE)
 + 3 x(UG_DB_II)(DS_DOUBLE) + 3 x(UG_DM)(DS_DOUBLE) + 3 x(UG_ML)(DS_DOUBLE)
 + 3 x(UG_MOB_UB)(DS_DOUBLE) + 3 x(UG_PROB_STATS_I)(DS_DOUBLE)
 + 3 x(UG_PROB_STATS_II)(DS_DOUBLE) + 3 x(UG_STAT_BIO)(DS_DOUBLE)
 + 3 x(UG_STAT_LEARN)(DS_DOUBLE) - z(DS_DOUBLE) = 18
reqMin(DS_EI): 3 x(ENG_ENTR)(DS_EI) - z(DS_EI) = 3
reqMin(DS_LA): 3 x(LIN_ALG)(DS_LA) - z(DS_LA) = 3
reqMin(DS_MS): 3 x(4000_MA_DE_NOT_DC)(DS_MS) + 3 x(CALC_I_II)(DS_MS)
 + 4.5 x(G_PROB_STATS_I)(DS_MS) + 4.5 x(G_PROB_STATS_II)(DS_MS)
 + 4.5 x(G_STAT_BIO)(DS_MS) + 4.5 x(G_STAT_LEARN)(DS_MS) + 3 x(MATH_DE)(DS_MS)
 + 3 x(MATH_OPT)(DS_MS) + 4.5 x(M_MATH_ANALYTICS)(DS_MS)
 + 3 x(UG_PROB_STATS_I)(DS_MS) + 3 x(UG_PROB_STATS_II)(DS_MS)
 + 3 x(UG_STAT_BIO)(DS_MS) + 3 x(UG_STAT_LEARN)(DS_MS) - z(DS_MS) = 6
reqMin(DS_M_TOTAL_CREDITS): 4.5 x(G_AI)(DS_M_TOTAL_CREDITS)
 + 4.5 x(G_BIOMED_DM)(DS_M_TOTAL_CREDITS)
 + 4.5 x(G_BIOVIS)(DS_M_TOTAL_CREDITS) + 4.5 x(G_DB)(DS_M_TOTAL_CREDITS)
 + 4.5 x(G_DM)(DS_M_TOTAL_CREDITS) + 4.5 x(G_ML)(DS_M_TOTAL_CREDITS)
 + 4.5 x(G_MOB_UB)(DS_M_TOTAL_CREDITS)
 + 4.5 x(G_PRES_ANALYTICS)(DS_M_TOTAL_CREDITS)
 + 4.5 x(G_PROB_STATS_I)(DS_M_TOTAL_CREDITS)
 + 4.5 x(G_PROB_STATS_II)(DS_M_TOTAL_CREDITS)
 + 4.5 x(G_STAT_BIO)(DS_M_TOTAL_CREDITS)
 + 4.5 x(G_STAT_LEARN)(DS_M_TOTAL_CREDITS)
 + 4.5 x(M_ADV_CRYPT)(DS_M_TOTAL_CREDITS)
 + 4.5 x(M_ADV_DB)(DS_M_TOTAL_CREDITS) + 4.5 x(M_AI_AET)(DS_M_TOTAL_CREDITS)
 + 4.5 x(M_ALGOS)(DS_M_TOTAL_CREDITS) + 4.5 x(M_BI)(DS_M_TOTAL_CREDITS)
 + 4.5 x(M_BIG_DATA_AN)(DS_M_TOTAL_CREDITS)
 + 4.5 x(M_BIG_DATA_MAN)(DS_M_TOTAL_CREDITS)
 + 4.5 x(M_BI_OTHER)(DS_M_TOTAL_CREDITS) + 4.5 x(M_CRYPT)(DS_M_TOTAL_CREDITS)
 + 4.5 x(M_DEEP_LEARN)(DS_M_TOTAL_CREDITS)
 + 4.5 x(M_ELECTIVES)(DS_M_TOTAL_CREDITS)
 + 4.5 x(M_EMP_HCC)(DS_M_TOTAL_CREDITS)
 + 4.5 x(M_GRAPH_UNCERT)(DS_M_TOTAL_CREDITS)
 + 4.5 x(M_INFO_RET)(DS_M_TOTAL_CREDITS)
 + 4.5 x(M_MATH_ANALYTICS)(DS_M_TOTAL_CREDITS)
 + 4.5 x(M_MATH_FOUND_DS)(DS_M_TOTAL_CREDITS)
 + 4.5 x(M_MIS_DB)(DS_M_TOTAL_CREDITS)
 + 4.5 x(M_USER_MODEL)(DS_M_TOTAL_CREDITS) - z(DS_M_TOTAL_CREDITS) = 45
reqMin(DS_NES): 3 x(SCI_ENG)(DS_NES) - z(DS_NES) = 6
reqMin(DS_STATS): 3 x(STATS)(DS_STATS) - z(DS_STATS) = 6
reqMin(HUA_CORE): 3 x(ART_CON)(HUA_CORE) + 3 x(FLG_CON)(HUA_CORE)
 + 3 x(HI_CON)(HUA_CORE) + 3 x(HU_DPE)(HUA_CORE) + 3 x(PY_CON)(HUA_CORE)
 + 3 x(WR_CON)(HUA_CORE) - z(HUA_CORE) = 15
reqMin(HUA_PROJ): 3 x(HUA_PROJ)(HUA_PROJ) - z(HUA_PROJ) = 3
reqMin(IQP): 9 x(IQP_OFF_CM)(IQP) + 9 x(IQP_ON_CM)(IQP) - z(IQP) = 9
reqMin(SOC_SCI_REQ): 3 x(ALL_SOC_SCI)(SOC_SCI_REQ) + 3 x(ID_2050)(SOC_SCI_REQ)
 + 3 x(SS_DPE)(SOC_SCI_REQ) - z(SOC_SCI_REQ) = 6
setY1(1000_CS): x(1000_CS)(DS_CS) - y(1000_CS) <= 0
setY1(4000_BI): x(4000_BI)(DS_DE) - y(4000_BI) <= 0
setY1(4000_MA_DE_NOT_DC): x(4000_MA_DE_NOT_DC)(DS_DE)
 + x(4000_MA_DE_NOT_DC)(DS_MS) - y(4000_MA_DE_NOT_DC) <= 0
setY1(4000_PA): x(4000_PA)(DS_DE) - y(4000_PA) <= 0
setY1(ALGO): x(ALGO)(DS_ALGOS) - y(ALGO) <= 0
setY1(ALL_SOC_SCI): x(ALL_SOC_SCI)(SOC_SCI_REQ) - y(ALL_SOC_SCI) <= 0
setY1(ANALYSIS_ALGOS): x(ANALYSIS_ALGOS)(DS_CS) + x(ANALYSIS_ALGOS)(DS_DE)
 + x(ANALYSIS_ALGOS)(DS_DOUBLE) - y(ANALYSIS_ALGOS) <= 0
setY1(ART_CON): x(ART_CON)(HUA_CORE) - y(ART_CON) <= 0
setY1(BIG_DATA): x(BIG_DATA)(DS_CS) + x(BIG_DATA)(DS_DE) - y(BIG_DATA) <= 0
setY1(BUS_4000_DE): x(BUS_4000_DE)(DS_DE) - y(BUS_4000_DE) <= 0
setY1(BUS_ANALYSIS): x(BUS_ANALYSIS)(DS_BA) - y(BUS_ANALYSIS) <= 0
setY1(BUS_DE): x(BUS_DE)(DS_DE) - y(BUS_DE) <= 0
setY1(CALC_I_II): x(CALC_I_II)(DS_MS) - y(CALC_I_II) <= 0
setY1(CS_4000_NOT_DC): x(CS_4000_NOT_DC)(DS_CS) + x(CS_4000_NOT_DC)(DS_DE)
 - y(CS_4000_NOT_DC) <= 0
setY1(CS_DE): x(CS_DE)(DS_CS) + x(CS_DE)(DS_DE) - y(CS_DE) <= 0
setY1(DB_I): x(DB_I)(DS_CS) + x(DB_I)(DS_DE) - y(DB_I) <= 0
setY1(DS_CORE): x(DS_CORE)(DS_C) - y(DS_CORE) <= 0
setY1(ENG_ENTR): x(ENG_ENTR)(DS_EI) - y(ENG_ENTR) <= 0
setY1(FLG_CON): x(FLG_CON)(HUA_CORE) - y(FLG_CON) <= 0
setY1(G_AI): x(G_AI)(DS_CS) + x(G_AI)(DS_DE) + x(G_AI)(DS_DOUBLE)
 + x(G_AI)(DS_M_TOTAL_CREDITS) - y(G_AI) <= 0
setY1(G_BIOMED_DM): x(G_BIOMED_DM)(DS_CS) + x(G_BIOMED_DM)(DS_DE)
 + x(G_BIOMED_DM)(DS_DOUBLE) + x(G_BIOMED_DM)(DS_M_TOTAL_CREDITS)
 - y(G_BIOMED_DM) <= 0
setY1(G_BIOVIS): x(G_BIOVIS)(DS_CS) + x(G_BIOVIS)(DS_DE)
 + x(G_BIOVIS)(DS_DOUBLE) + x(G_BIOVIS)(DS_M_TOTAL_CREDITS) - y(G_BIOVIS) <= 0
setY1(G_DB): x(G_DB)(DS_CS) + x(G_DB)(DS_DE) + x(G_DB)(DS_DOUBLE)
 + x(G_DB)(DS_M_TOTAL_CREDITS) - y(G_DB) <= 0
setY1(G_DM): x(G_DM)(DS_CS) + x(G_DM)(DS_DE) + x(G_DM)(DS_DOUBLE)
 + x(G_DM)(DS_M_TOTAL_CREDITS) - y(G_DM) <= 0
setY1(G_ML): x(G_ML)(DS_CS) + x(G_ML)(DS_DE) + x(G_ML)(DS_DOUBLE)
 + x(G_ML)(DS_M_TOTAL_CREDITS) - y(G_ML) <= 0
setY1(G_MOB_UB): x(G_MOB_UB)(DS_CS) + x(G_MOB_UB)(DS_DE)
 + x(G_MOB_UB)(DS_DOUBLE) + x(G_MOB_UB)(DS_M_TOTAL_CREDITS) - y(G_MOB_UB) <= 0
setY1(G_PRES_ANALYTICS): x(G_PRES_ANALYTICS)(DS_DE)
 + x(G_PRES_ANALYTICS)(DS_DOUBLE) + x(G_PRES_ANALYTICS)(DS_M_TOTAL_CREDITS)
 - y(G_PRES_ANALYTICS) <= 0
setY1(G_PROB_STATS_I): x(G_PROB_STATS_I)(DS_DE) + x(G_PROB_STATS_I)(DS_DOUBLE)
 + x(G_PROB_STATS_I)(DS_MS) + x(G_PROB_STATS_I)(DS_M_TOTAL_CREDITS)
 - y(G_PROB_STATS_I) <= 0
setY1(G_PROB_STATS_II): x(G_PROB_STATS_II)(DS_DE)
 + x(G_PROB_STATS_II)(DS_DOUBLE) + x(G_PROB_STATS_II)(DS_MS)
 + x(G_PROB_STATS_II)(DS_M_TOTAL_CREDITS) - y(G_PROB_STATS_II) <= 0
setY1(G_STAT_BIO): x(G_STAT_BIO)(DS_DOUBLE) + x(G_STAT_BIO)(DS_MS)
 + x(G_STAT_BIO)(DS_M_TOTAL_CREDITS) - y(G_STAT_BIO) <= 0
setY1(G_STAT_LEARN): x(G_STAT_LEARN)(DS_DE) + x(G_STAT_LEARN)(DS_DOUBLE)
 + x(G_STAT_LEARN)(DS_MS) + x(G_STAT_LEARN)(DS_M_TOTAL_CREDITS)
 - y(G_STAT_LEARN) <= 0
setY1(HI_CON): x(HI_CON)(HUA_CORE) - y(HI_CON) <= 0
setY1(HUA_PROJ): x(HUA_PROJ)(HUA_PROJ) - y(HUA_PROJ) <= 0
setY1(HU_DPE): x(HU_DPE)(HUA_CORE) - y(HU_DPE) <= 0
setY1(ID_2050): x(ID_2050)(SOC_SCI_REQ) - y(ID_2050) <= 0
setY1(INTRO_CS): x(INTRO_CS)(DS_CS) - y(INTRO_CS) <= 0
setY1(IQP_OFF_CM): x(IQP_OFF_CM)(IQP) - y(IQP_OFF_CM) <= 0
setY1(IQP_ON_CM): x(IQP_ON_CM)(IQP) - y(IQP_ON_CM) <= 0
setY1(LIN_ALG): x(LIN_ALG)(DS_LA) - y(LIN_ALG) <= 0
setY1(MATH_DE): x(MATH_DE)(DS_DE) + x(MATH_DE)(DS_MS) - y(MATH_DE) <= 0
setY1(MATH_OPT): x(MATH_OPT)(DS_DE) + x(MATH_OPT)(DS_DOUBLE)
 + x(MATH_OPT)(DS_MS) - y(MATH_OPT) <= 0
setY1(MIS_DB): x(MIS_DB)(DS_DE) - y(MIS_DB) <= 0
setY1(M_ADV_CRYPT): x(M_ADV_CRYPT)(DS_M_TOTAL_CREDITS) - y(M_ADV_CRYPT) <= 0
setY1(M_ADV_DB): x(M_ADV_DB)(DS_CS) + x(M_ADV_DB)(DS_DE)
 + x(M_ADV_DB)(DS_DOUBLE) + x(M_ADV_DB)(DS_M_TOTAL_CREDITS) - y(M_ADV_DB) <= 0
setY1(M_AI_AET): x(M_AI_AET)(DS_M_TOTAL_CREDITS) - y(M_AI_AET) <= 0
setY1(M_ALGOS): x(M_ALGOS)(DS_M_TOTAL_CREDITS) - y(M_ALGOS) <= 0
setY1(M_BI): x(M_BI)(DS_DE) + x(M_BI)(DS_DOUBLE) + x(M_BI)(DS_M_TOTAL_CREDITS)
 - y(M_BI) <= 0
setY1(M_BIG_DATA_AN): x(M_BIG_DATA_AN)(DS_CS) + x(M_BIG_DATA_AN)(DS_DE)
 + x(M_BIG_DATA_AN)(DS_DOUBLE) + x(M_BIG_DATA_AN)(DS_M_TOTAL_CREDITS)
 - y(M_BIG_DATA_AN) <= 0
setY1(M_BIG_DATA_MAN): x(M_BIG_DATA_MAN)(DS_CS) + x(M_BIG_DATA_MAN)(DS_DE)
 + x(M_BIG_DATA_MAN)(DS_DOUBLE) + x(M_BIG_DATA_MAN)(DS_M_TOTAL_CREDITS)
 - y(M_BIG_DATA_MAN) <= 0
setY1(M_BI_OTHER): x(M_BI_OTHER)(DS_DE) + x(M_BI_OTHER)(DS_DOUBLE)
 + x(M_BI_OTHER)(DS_M_TOTAL_CREDITS) - y(M_BI_OTHER) <= 0
setY1(M_CRYPT): x(M_CRYPT)(DS_M_TOTAL_CREDITS) - y(M_CRYPT) <= 0
setY1(M_DEEP_LEARN): x(M_DEEP_LEARN)(DS_CS) + x(M_DEEP_LEARN)(DS_DE)
 + x(M_DEEP_LEARN)(DS_DOUBLE) + x(M_DEEP_LEARN)(DS_M_TOTAL_CREDITS)
 - y(M_DEEP_LEARN) <= 0
setY1(M_ELECTIVES): x(M_ELECTIVES)(DS_M_TOTAL_CREDITS) - y(M_ELECTIVES) <= 0
setY1(M_EMP_HCC): x(M_EMP_HCC)(DS_M_TOTAL_CREDITS) - y(M_EMP_HCC) <= 0
setY1(M_GRAPH_UNCERT): x(M_GRAPH_UNCERT)(DS_M_TOTAL_CREDITS)
 - y(M_GRAPH_UNCERT) <= 0
setY1(M_INFO_RET): x(M_INFO_RET)(DS_M_TOTAL_CREDITS) - y(M_INFO_RET) <= 0
setY1(M_MATH_ANALYTICS): x(M_MATH_ANALYTICS)(DS_DE)
 + x(M_MATH_ANALYTICS)(DS_DOUBLE) + x(M_MATH_ANALYTICS)(DS_MS)
 + x(M_MATH_ANALYTICS)(DS_M_TOTAL_CREDITS) - y(M_MATH_ANALYTICS) <= 0
setY1(M_MATH_FOUND_DS): x(M_MATH_FOUND_DS)(DS_M_TOTAL_CREDITS)
 - y(M_MATH_FOUND_DS) <= 0
setY1(M_MIS_DB): x(M_MIS_DB)(DS_DE) + x(M_MIS_DB)(DS_DOUBLE)
 + x(M_MIS_DB)(DS_M_TOTAL_CREDITS) - y(M_MIS_DB) <= 0
setY1(M_USER_MODEL): x(M_USER_MODEL)(DS_M_TOTAL_CREDITS) - y(M_USER_MODEL)
 <= 0
setY1(PY_CON): x(PY_CON)(HUA_CORE) - y(PY_CON) <= 0
setY1(SCI_ENG): x(SCI_ENG)(DS_NES) - y(SCI_ENG) <= 0
setY1(SOC_IMPS): x(SOC_IMPS)(DS_DE) - y(SOC_IMPS) <= 0
setY1(SS_DPE): x(SS_DPE)(SOC_SCI_REQ) - y(SS_DPE) <= 0
setY1(STATS): x(STATS)(DS_STATS) - y(STATS) <= 0
setY1(UG_AI): x(UG_AI)(DS_CS) + x(UG_AI)(DS_DE) + x(UG_AI)(DS_DOUBLE)
 - y(UG_AI) <= 0
setY1(UG_BIOMED_DM): x(UG_BIOMED_DM)(DS_CS) + x(UG_BIOMED_DM)(DS_DE)
 + x(UG_BIOMED_DM)(DS_DOUBLE) - y(UG_BIOMED_DM) <= 0
setY1(UG_BIOVIS): x(UG_BIOVIS)(DS_CS) + x(UG_BIOVIS)(DS_DE)
 + x(UG_BIOVIS)(DS_DOUBLE) - y(UG_BIOVIS) <= 0
setY1(UG_DB_II): x(UG_DB_II)(DS_CS) + x(UG_DB_II)(DS_DE)
 + x(UG_DB_II)(DS_DOUBLE) - y(UG_DB_II) <= 0
setY1(UG_DM): x(UG_DM)(DS_CS) + x(UG_DM)(DS_DE) + x(UG_DM)(DS_DOUBLE)
 - y(UG_DM) <= 0
setY1(UG_ML): x(UG_ML)(DS_CS) + x(UG_ML)(DS_DE) + x(UG_ML)(DS_DOUBLE)
 - y(UG_ML) <= 0
setY1(UG_MOB_UB): x(UG_MOB_UB)(DS_DOUBLE) - y(UG_MOB_UB) <= 0
setY1(UG_PROB_STATS_I): x(UG_PROB_STATS_I)(DS_DE)
 + x(UG_PROB_STATS_I)(DS_DOUBLE) + x(UG_PROB_STATS_I)(DS_MS)
 - y(UG_PROB_STATS_I) <= 0
setY1(UG_PROB_STATS_II): x(UG_PROB_STATS_II)(DS_DE)
 + x(UG_PROB_STATS_II)(DS_DOUBLE) + x(UG_PROB_STATS_II)(DS_MS)
 - y(UG_PROB_STATS_II) <= 0
setY1(UG_STAT_BIO): x(UG_STAT_BIO)(DS_DE) + x(UG_STAT_BIO)(DS_DOUBLE)
 + x(UG_STAT_BIO)(DS_MS) - y(UG_STAT_BIO) <= 0
setY1(UG_STAT_LEARN): x(UG_STAT_LEARN)(DS_DE) + x(UG_STAT_LEARN)(DS_DOUBLE)
 + x(UG_STAT_LEARN)(DS_MS) - y(UG_STAT_LEARN) <= 0
setY1(WR_CON): x(WR_CON)(HUA_CORE) - y(WR_CON) <= 0
Bounds
 __dummy = 0
 0 <= x(1000_CS)(DS_CS) <= 3
 0 <= x(4000_MA_DE_NOT_DC)(DS_DE) <= 5
 0 <= x(4000_MA_DE_NOT_DC)(DS_MS) <= 5
 0 <= x(ALL_SOC_SCI)(SOC_SCI_REQ) <= 60
 0 <= x(ART_CON)(HUA_CORE) <= 20
 0 <= x(BIG_DATA)(DS_CS) <= 2
 0 <= x(BIG_DATA)(DS_DE) <= 2
 0 <= x(BUS_4000_DE)(DS_DE) <= 2
 0 <= x(BUS_ANALYSIS)(DS_BA) <= 2
 0 <= x(BUS_DE)(DS_DE) <= 3
 0 <= x(CALC_I_II)(DS_MS) <= 4
 0 <= x(CS_4000_NOT_DC)(DS_CS) <= 3
 0 <= x(CS_4000_NOT_DC)(DS_DE) <= 3
 0 <= x(CS_DE)(DS_CS) <= 5
 0 <= x(CS_DE)(DS_DE) <= 5
 0 <= x(DS_CORE)(DS_C) <= 3
 0 <= x(ENG_ENTR)(DS_EI) <= 6
 0 <= x(FLG_CON)(HUA_CORE) <= 20
 0 <= x(G_BIOMED_DM)(DS_CS) <= 2
 0 <= x(G_BIOMED_DM)(DS_DE) <= 2
 0 <= x(G_BIOMED_DM)(DS_DOUBLE) <= 2
 0 <= x(G_BIOMED_DM)(DS_M_TOTAL_CREDITS) <= 2
 0 <= x(G_BIOVIS)(DS_CS) <= 2
 0 <= x(G_BIOVIS)(DS_DE) <= 2
 0 <= x(G_BIOVIS)(DS_DOUBLE) <= 2
 0 <= x(G_BIOVIS)(DS_M_TOTAL_CREDITS) <= 2
 0 <= x(G_STAT_BIO)(DS_DOUBLE) <= 2
 0 <= x(G_STAT_BIO)(DS_MS) <= 2
 0 <= x(G_STAT_BIO)(DS_M_TOTAL_CREDITS) <= 2
 0 <= x(G_STAT_LEARN)(DS_DE) <= 2
 0 <= x(G_STAT_LEARN)(DS_DOUBLE) <= 2
 0 <= x(G_STAT_LEARN)(DS_MS) <= 2
 0 <= x(G_STAT_LEARN)(DS_M_TOTAL_CREDITS) <= 2
 0 <= x(HI_CON)(HUA_CORE) <= 20
 0 <= x(HUA_PROJ)(HUA_PROJ) <= 2
 0 <= x(HU_DPE)(HUA_CORE) <= 3
 0 <= x(INTRO_CS)(DS_CS) <= 3
 0 <= x(IQP_OFF_CM)(IQP) <= 5
 0 <= x(LIN_ALG)(DS_LA) <= 2
 0 <= x(MATH_DE)(DS_DE) <= 17
 0 <= x(MATH_DE)(DS_MS) <= 17
 0 <= x(M_ADV_CRYPT)(DS_M_TOTAL_CREDITS) <= 2
 0 <= x(M_AI_AET)(DS_M_TOTAL_CREDITS) <= 2
 0 <= x(M_ALGOS)(DS_M_TOTAL_CREDITS) <= 2
 0 <= x(M_BIG_DATA_AN)(DS_CS) <= 2
 0 <= x(M_BIG_DATA_AN)(DS_DE) <= 2
 0 <= x(M_BIG_DATA_AN)(DS_DOUBLE) <= 2
 0 <= x(M_BIG_DATA_AN)(DS_M_TOTAL_CREDITS) <= 2
 0 <= x(M_BIG_DATA_MAN)(DS_CS) <= 2
 0 <= x(M_BIG_DATA_MAN)(DS_DE) <= 2
 0 <= x(M_BIG_DATA_MAN)(DS_DOUBLE) <= 2
 0 <= x(M_BIG_DATA_MAN)(DS_M_TOTAL_CREDITS) <= 2
 0 <= x(M_BI_OTHER)(DS_DE) <= 2
 0 <= x(M_BI_OTHER)(DS_DOUBLE) <= 2
 0 <= x(M_BI_OTHER)(DS_M_TOTAL_CREDITS) <= 2
 0 <= x(M_CRYPT)(DS_M_TOTAL_CREDITS) <= 2
 0 <= x(M_DEEP_LEARN)(DS_CS) <= 2
 0 <= x(M_DEEP_LEARN)(DS_DE) <= 2
 0 <= x(M_DEEP_LEARN)(DS_DOUBLE) <= 2
 0 <= x(M_DEEP_LEARN)(DS_M_TOTAL_CREDITS) <= 2
 0 <= x(M_ELECTIVES)(DS_M_TOTAL_CREDITS) <= 41
 0 <= x(M_EMP_HCC)(DS_M_TOTAL_CREDITS) <= 2
 0 <= x(M_GRAPH_UNCERT)(DS_M_TOTAL_CREDITS) <= 2
 0 <= x(M_INFO_RET)(DS_M_TOTAL_CREDITS) <= 2
 0 <= x(M_MATH_ANALYTICS)(DS_DE) <= 2
 0 <= x(M_MATH_ANALYTICS)(DS_DOUBLE) <= 2
 0 <= x(M_MATH_ANALYTICS)(DS_MS) <= 2
 0 <= x(M_MATH_ANALYTICS)(DS_M_TOTAL_CREDITS) <= 2
 0 <= x(M_MATH_FOUND_DS)(DS_M_TOTAL_CREDITS) <= 2
 0 <= x(M_USER_MODEL)(DS_M_TOTAL_CREDITS) <= 2
 0 <= x(PY_CON)(HUA_CORE) <= 20
 0 <= x(SCI_ENG)(DS_NES) <= 12
 0 <= x(SS_DPE)(SOC_SCI_REQ) <= 3
 0 <= x(STATS)(DS_STATS) <= 2
 0 <= x(UG_BIOMED_DM)(DS_CS) <= 2
 0 <= x(UG_BIOMED_DM)(DS_DE) <= 2
 0 <= x(UG_BIOMED_DM)(DS_DOUBLE) <= 2
 0 <= x(UG_BIOVIS)(DS_CS) <= 2
 0 <= x(UG_BIOVIS)(DS_DE) <= 2
 0 <= x(UG_BIOVIS)(DS_DOUBLE) <= 2
 0 <= x(UG_STAT_BIO)(DS_DE) <= 2
 0 <= x(UG_STAT_BIO)(DS_DOUBLE) <= 2
 0 <= x(UG_STAT_BIO)(DS_MS) <= 2
 0 <= x(UG_STAT_LEARN)(DS_DE) <= 2
 0 <= x(UG_STAT_LEARN)(DS_DOUBLE) <= 2
 0 <= x(UG_STAT_LEARN)(DS_MS) <= 2
 0 <= x(WR_CON)(HUA_CORE) <= 20
 0 <= y(1000_CS) <= 3
 0 <= y(4000_MA_DE_NOT_DC) <= 5
 0 <= y(ALL_SOC_SCI) <= 60
 0 <= y(ART_CON) <= 20
 0 <= y(BIG_DATA) <= 2
 0 <= y(BUS_4000_DE) <= 2
 0 <= y(BUS_ANALYSIS) <= 2
 0 <= y(BUS_DE) <= 3
 0 <= y(CALC_I_II) <= 4
 0 <= y(CS_4000_NOT_DC) <= 3
 0 <= y(CS_DE) <= 5
 0 <= y(DS_CORE) <= 3
 0 <= y(ENG_ENTR) <= 6
 0 <= y(FLG_CON) <= 20
 0 <= y(G_BIOMED_DM) <= 2
 0 <= y(G_BIOVIS) <= 2
 0 <= y(G_STAT_BIO) <= 2
 0 <= y(G_STAT_LEARN) <= 2
 0 <= y(HI_CON) <= 20
 0 <= y(HUA_PROJ) <= 2
 0 <= y(HU_DPE) <= 3
 0 <= y(INTRO_CS) <= 3
 0 <= y(IQP_OFF_CM) <= 5
 0 <= y(LIN_ALG) <= 2
 0 <= y(MATH_DE) <= 17
 0 <= y(M_ADV_CRYPT) <= 2
 0 <= y(M_AI_AET) <= 2
 0 <= y(M_ALGOS) <= 2
 0 <= y(M_BIG_DATA_AN) <= 2
 0 <= y(M_BIG_DATA_MAN) <= 2
 0 <= y(M_BI_OTHER) <= 2
 0 <= y(M_CRYPT) <= 2
 0 <= y(M_DEEP_LEARN) <= 2
 0 <= y(M_ELECTIVES) <= 41
 0 <= y(M_EMP_HCC) <= 2
 0 <= y(M_GRAPH_UNCERT) <= 2
 0 <= y(M_INFO_RET) <= 2
 0 <= y(M_MATH_ANALYTICS) <= 2
 0 <= y(M_MATH_FOUND_DS) <= 2
 0 <= y(M_USER_MODEL) <= 2
 0 <= y(PY_CON) <= 20
 0 <= y(SCI_ENG) <= 12
 0 <= y(SS_DPE) <= 3
 0 <= y(STATS) <= 2
 0 <= y(UG_BIOMED_DM) <= 2
 0 <= y(UG_BIOVIS) <= 2
 0 <= y(UG_STAT_BIO) <= 2
 0 <= y(UG_STAT_LEARN) <= 2
 0 <= y(WR_CON) <= 20
 0 <= z(DS_ALGOS)
 0 <= z(DS_BA)
 0 <= z(DS_C)
 0 <= z(DS_CS)
 0 <= z(DS_DE)
 0 <= z(DS_DOUBLE)
 0 <= z(DS_EI)
 0 <= z(DS_LA)
 0 <= z(DS_MS)
 0 <= z(DS_M_TOTAL_CREDITS)
 0 <= z(DS_NES)
 0 <= z(DS_STATS)
 0 <= z(HUA_CORE)
 0 <= z(HUA_PROJ)
 0 <= z(IQP)
 0 <= z(SOC_SCI_REQ)
Generals
x(1000_CS)(DS_CS)
x(4000_MA_DE_NOT_DC)(DS_DE)
x(4000_MA_DE_NOT_DC)(DS_MS)
x(ALL_SOC_SCI)(SOC_SCI_REQ)
x(ART_CON)(HUA_CORE)
x(BIG_DATA)(DS_CS)
x(BIG_DATA)(DS_DE)
x(BUS_4000_DE)(DS_DE)
x(BUS_ANALYSIS)(DS_BA)
x(BUS_DE)(DS_DE)
x(CALC_I_II)(DS_MS)
x(CS_4000_NOT_DC)(DS_CS)
x(CS_4000_NOT_DC)(DS_DE)
x(CS_DE)(DS_CS)
x(CS_DE)(DS_DE)
x(DS_CORE)(DS_C)
x(ENG_ENTR)(DS_EI)
x(FLG_CON)(HUA_CORE)
x(G_BIOMED_DM)(DS_CS)
x(G_BIOMED_DM)(DS_DE)
x(G_BIOMED_DM)(DS_DOUBLE)
x(G_BIOMED_DM)(DS_M_TOTAL_CREDITS)
x(G_BIOVIS)(DS_CS)
x(G_BIOVIS)(DS_DE)
x(G_BIOVIS)(DS_DOUBLE)
x(G_BIOVIS)(DS_M_TOTAL_CREDITS)
x(G_STAT_BIO)(DS_DOUBLE)
x(G_STAT_BIO)(DS_MS)
x(G_STAT_BIO)(DS_M_TOTAL_CREDITS)
x(G_STAT_LEARN)(DS_DE)
x(G_STAT_LEARN)(DS_DOUBLE)
x(G_STAT_LEARN)(DS_MS)
x(G_STAT_LEARN)(DS_M_TOTAL_CREDITS)
x(HI_CON)(HUA_CORE)
x(HUA_PROJ)(HUA_PROJ)
x(HU_DPE)(HUA_CORE)
x(INTRO_CS)(DS_CS)
x(IQP_OFF_CM)(IQP)
x(LIN_ALG)(DS_LA)
x(MATH_DE)(DS_DE)
x(MATH_DE)(DS_MS)
x(M_ADV_CRYPT)(DS_M_TOTAL_CREDITS)
x(M_AI_AET)(DS_M_TOTAL_CREDITS)
x(M_ALGOS)(DS_M_TOTAL_CREDITS)
x(M_BIG_DATA_AN)(DS_CS)
x(M_BIG_DATA_AN)(DS_DE)
x(M_BIG_DATA_AN)(DS_DOUBLE)
x(M_BIG_DATA_AN)(DS_M_TOTAL_CREDITS)
x(M_BIG_DATA_MAN)(DS_CS)
x(M_BIG_DATA_MAN)(DS_DE)
x(M_BIG_DATA_MAN)(DS_DOUBLE)
x(M_BIG_DATA_MAN)(DS_M_TOTAL_CREDITS)
x(M_BI_OTHER)(DS_DE)
x(M_BI_OTHER)(DS_DOUBLE)
x(M_BI_OTHER)(DS_M_TOTAL_CREDITS)
x(M_CRYPT)(DS_M_TOTAL_CREDITS)
x(M_DEEP_LEARN)(DS_CS)
x(M_DEEP_LEARN)(DS_DE)
x(M_DEEP_LEARN)(DS_DOUBLE)
x(M_DEEP_LEARN)(DS_M_TOTAL_CREDITS)
x(M_ELECTIVES)(DS_M_TOTAL_CREDITS)
x(M_EMP_HCC)(DS_M_TOTAL_CREDITS)
x(M_GRAPH_UNCERT)(DS_M_TOTAL_CREDITS)
x(M_INFO_RET)(DS_M_TOTAL_CREDITS)
x(M_MATH_ANALYTICS)(DS_DE)
x(M_MATH_ANALYTICS)(DS_DOUBLE)
x(M_MATH_ANALYTICS)(DS_MS)
x(M_MATH_ANALYTICS)(DS_M_TOTAL_CREDITS)
x(M_MATH_FOUND_DS)(DS_M_TOTAL_CREDITS)
x(M_USER_MODEL)(DS_M_TOTAL_CREDITS)
x(PY_CON)(HUA_CORE)
x(SCI_ENG)(DS_NES)
x(SS_DPE)(SOC_SCI_REQ)
x(STATS)(DS_STATS)
x(UG_BIOMED_DM)(DS_CS)
x(UG_BIOMED_DM)(DS_DE)
x(UG_BIOMED_DM)(DS_DOUBLE)
x(UG_BIOVIS)(DS_CS)
x(UG_BIOVIS)(DS_DE)
x(UG_BIOVIS)(DS_DOUBLE)
x(UG_STAT_BIO)(DS_DE)
x(UG_STAT_BIO)(DS_DOUBLE)
x(UG_STAT_BIO)(DS_MS)
x(UG_STAT_LEARN)(DS_DE)
x(UG_STAT_LEARN)(DS_DOUBLE)
x(UG_STAT_LEARN)(DS_MS)
x(WR_CON)(HUA_CORE)
y(1000_CS)
y(4000_MA_DE_NOT_DC)
y(ALL_SOC_SCI)
y(ART_CON)
y(BIG_DATA)
y(BUS_4000_DE)
y(BUS_ANALYSIS)
y(BUS_DE)
y(CALC_I_II)
y(CS_4000_NOT_DC)
y(CS_DE)
y(DS_CORE)
y(ENG_ENTR)
y(FLG_CON)
y(G_BIOMED_DM)
y(G_BIOVIS)
y(G_STAT_BIO)
y(G_STAT_LEARN)
y(HI_CON)
y(HUA_PROJ)
y(HU_DPE)
y(INTRO_CS)
y(IQP_OFF_CM)
y(LIN_ALG)
y(MATH_DE)
y(M_ADV_CRYPT)
y(M_AI_AET)
y(M_ALGOS)
y(M_BIG_DATA_AN)
y(M_BIG_DATA_MAN)
y(M_BI_OTHER)
y(M_CRYPT)
y(M_DEEP_LEARN)
y(M_ELECTIVES)
y(M_EMP_HCC)
y(M_GRAPH_UNCERT)
y(M_INFO_RET)
y(M_MATH_ANALYTICS)
y(M_MATH_FOUND_DS)
y(M_USER_MODEL)
y(PY_CON)
y(SCI_ENG)
y(SS_DPE)
y(STATS)
y(UG_BIOMED_DM)
y(UG_BIOVIS)
y(UG_STAT_BIO)
y(UG_STAT_LEARN)
y(WR_CON)
Binaries
SR2(HUA_DEPTH_0)
SR2(HUA_DEPTH_1)
SR2(HUA_DEPTH_2)
SR2(HUA_DEPTH_3)
SR2(HUA_DEPTH_4)
x(4000_BI)(DS_DE)
x(4000_PA)(DS_DE)
x(ALGO)(DS_ALGOS)
x(ANALYSIS_ALGOS)(DS_CS)
x(ANALYSIS_ALGOS)(DS_DE)
x(ANALYSIS_ALGOS)(DS_DOUBLE)
x(DB_I)(DS_CS)
x(DB_I)(DS_DE)
x(G_AI)(DS_CS)
x(G_AI)(DS_DE)
x(G_AI)(DS_DOUBLE)
x(G_AI)(DS_M_TOTAL_CREDITS)
x(G_DB)(DS_CS)
x(G_DB)(DS_DE)
x(G_DB)(DS_DOUBLE)
x(G_DB)(DS_M_TOTAL_CREDITS)
x(G_DM)(DS_CS)
x(G_DM)(DS_DE)
x(G_DM)(DS_DOUBLE)
x(G_DM)(DS_M_TOTAL_CREDITS)
x(G_ML)(DS_CS)
x(G_ML)(DS_DE)
x(G_ML)(DS_DOUBLE)
x(G_ML)(DS_M_TOTAL_CREDITS)
x(G_MOB_UB)(DS_CS)
x(G_MOB_UB)(DS_DE)
x(G_MOB_UB)(DS_DOUBLE)
x(G_MOB_UB)(DS_M_TOTAL_CREDITS)
x(G_PRES_ANALYTICS)(DS_DE)
x(G_PRES_ANALYTICS)(DS_DOUBLE)
x(G_PRES_ANALYTICS)(DS_M_TOTAL_CREDITS)
x(G_PROB_STATS_I)(DS_DE)
x(G_PROB_STATS_I)(DS_DOUBLE)
x(G_PROB_STATS_I)(DS_MS)
x(G_PROB_STATS_I)(DS_M_TOTAL_CREDITS)
x(G_PROB_STATS_II)(DS_DE)
x(G_PROB_STATS_II)(DS_DOUBLE)
x(G_PROB_STATS_II)(DS_MS)
x(G_PROB_STATS_II)(DS_M_TOTAL_CREDITS)
x(ID_2050)(SOC_SCI_REQ)
x(IQP_ON_CM)(IQP)
x(MATH_OPT)(DS_DE)
x(MATH_OPT)(DS_DOUBLE)
x(MATH_OPT)(DS_MS)
x(MIS_DB)(DS_DE)
x(M_ADV_DB)(DS_CS)
x(M_ADV_DB)(DS_DE)
x(M_ADV_DB)(DS_DOUBLE)
x(M_ADV_DB)(DS_M_TOTAL_CREDITS)
x(M_BI)(DS_DE)
x(M_BI)(DS_DOUBLE)
x(M_BI)(DS_M_TOTAL_CREDITS)
x(M_MIS_DB)(DS_DE)
x(M_MIS_DB)(DS_DOUBLE)
x(M_MIS_DB)(DS_M_TOTAL_CREDITS)
x(SOC_IMPS)(DS_DE)
x(UG_AI)(DS_CS)
x(UG_AI)(DS_DE)
x(UG_AI)(DS_DOUBLE)
x(UG_DB_II)(DS_CS)
x(UG_DB_II)(DS_DE)
x(UG_DB_II)(DS_DOUBLE)
x(UG_DM)(DS_CS)
x(UG_DM)(DS_DE)
x(UG_DM)(DS_DOUBLE)
x(UG_ML)(DS_CS)
x(UG_ML)(DS_DE)
x(UG_ML)(DS_DOUBLE)
x(UG_MOB_UB)(DS_DOUBLE)
x(UG_PROB_STATS_I)(DS_DE)
x(UG_PROB_STATS_I)(DS_DOUBLE)
x(UG_PROB_STATS_I)(DS_MS)
x(UG_PROB_STATS_II)(DS_DE)
x(UG_PROB_STATS_II)(DS_DOUBLE)
x(UG_PROB_STATS_II)(DS_MS)
y(4000_BI)
y(4000_PA)
y(ALGO)
y(ANALYSIS_ALGOS)
y(DB_I)
y(DPE_LEFTOVER)
y(G_AI)
y(G_DB)
y(G_DM)
y(G_ML)
y(G_MOB_UB)
y(G_PRES_ANALYTICS)
y(G_PROB_STATS_I)
y(G_PROB_STATS_II)
y(ID_2050)
y(IQP_ON_CM)
y(MATH_OPT)
y(MIS_DB)
y(M_ADV_DB)
y(M_BI)
y(M_MIS_DB)
y(SOC_IMPS)
y(UG_AI)
y(UG_DB_II)
y(UG_DM)
y(UG_ML)
y(UG_MOB_UB)
y(UG_PROB_STATS_I)
y(UG_PROB_STATS_II)
End
>>>>>>> 159a2e6de181a6fe34671fc1e50410436010e165
